[VALIDATOR STDOUT]
Checking plan: /home/jfan5/Safety-gen/runs/benchmark/optic/ferry_20260201_171235/ferry/optic_results/ferry-l09-c05-s9001.plan
Plan executed successfully - checking goal
Plan valid
Final value: 17 

Successful plans:
Value: 17
 /home/jfan5/Safety-gen/runs/benchmark/optic/ferry_20260201_171235/ferry/optic_results/ferry-l09-c05-s9001.plan 17
